(set-option :produce-models true); benchmark generated from python API
(set-info :status unknown)
(declare-fun l_0_0_13 () Real)
(declare-fun _a_0_ () Real)
(declare-fun l_0_0_16 () Real)
(declare-fun l_0_0_1 () Real)
(declare-fun _a_7_ () Real)
(declare-fun _a_1_ () Real)
(declare-fun l_0_0_7 () Real)
(declare-fun l_0_0_14 () Real)
(declare-fun _a_6_ () Real)
(declare-fun _a_4_ () Real)
(declare-fun _a_3_ () Real)
(declare-fun l_0_0_17 () Real)
(declare-fun l_0_0_15 () Real)
(declare-fun l_0_0_10 () Real)
(declare-fun l_0_0_2 () Real)
(declare-fun _a_5_ () Real)
(declare-fun l_0_0_18 () Real)
(declare-fun l_0_0_4 () Real)
(declare-fun l_0_0_3 () Real)
(declare-fun l_0_0_9 () Real)
(declare-fun l_0_0_11 () Real)
(declare-fun l_0_0_8 () Real)
(declare-fun l_0_0_5 () Real)
(declare-fun l_0_0_12 () Real)
(declare-fun l_0_0_6 () Real)
(declare-fun l_0_1_3 () Real)
(declare-fun l_0_1_2 () Real)
(declare-fun l_0_1_1 () Real)
(declare-fun _a_2_ () Real)
(declare-fun l_0_2_4 () Real)
(declare-fun l_0_2_2 () Real)
(declare-fun l_0_2_1 () Real)
(declare-fun l_0_2_3 () Real)
(declare-fun l_0_3_4 () Real)
(declare-fun l_0_3_2 () Real)
(declare-fun l_0_3_1 () Real)
(declare-fun l_0_3_3 () Real)
(assert
 (= (- _a_0_ (* l_0_0_13 l_0_0_13)) 0.0))
(assert
 (let ((?x74 (- (- (+ _a_1_ _a_7_) (* l_0_0_1 l_0_0_1)) (* (* 2.0 l_0_0_13) l_0_0_16))))
 (= ?x74 0.0)))
(assert
 (let ((?x91 (* l_0_0_7 l_0_0_7)))
 (let ((?x90 (- (+ (+ _a_3_ _a_4_) _a_6_) (* (* 2.0 l_0_0_13) l_0_0_14))))
 (= (- ?x90 ?x91) 0.0))))
(assert
 (let ((?x110 (- (- _a_5_ (* (* 2.0 l_0_0_1) l_0_0_2)) (* (* 2.0 l_0_0_10) l_0_0_7))))
 (let ((?x116 (- (- ?x110 (* (* 2.0 l_0_0_14) l_0_0_16)) (* (* 2.0 l_0_0_15) l_0_0_17))))
 (= ?x116 0.0))))
(assert
 (let ((?x149 (* l_0_0_18 l_0_0_18)))
 (let ((?x147 (* l_0_0_17 l_0_0_17)))
 (let ((?x148 (- (- (* (* (- 2.0) l_0_0_1) l_0_0_4) (* l_0_0_16 l_0_0_16)) ?x147)))
 (= (- ?x148 ?x149) 0.0)))))
(assert
 (let ((?x173 (* l_0_0_3 l_0_0_3)))
 (let ((?x171 (* l_0_0_2 l_0_0_2)))
 (let ((?x170 (- (* (* (- 2.0) l_0_0_10) l_0_0_8) (* (* 2.0 l_0_0_11) l_0_0_9))))
 (= (- (- ?x170 ?x171) ?x173) 0.0)))))
(assert
 (let ((?x197 (* l_0_0_12 l_0_0_12)))
 (let ((?x201 (- (- (- (* (- l_0_0_10) l_0_0_10) (* l_0_0_11 l_0_0_11)) ?x197) (* (* 2.0 l_0_0_2) l_0_0_4))))
 (= (- ?x201 (* (* 2.0 l_0_0_3) l_0_0_5)) 0.0))))
(assert
 (let ((?x233 (* l_0_0_6 l_0_0_6)))
 (= (- (- (* (- l_0_0_4) l_0_0_4) (* l_0_0_5 l_0_0_5)) ?x233) 0.0)))
(assert
 (let ((?x253 (- (- (* (- l_0_0_14) l_0_0_14) (* l_0_0_15 l_0_0_15)) (* (* 2.0 l_0_0_7) l_0_0_8))))
 (= ?x253 0.0)))
(assert
 (= (- (* (- l_0_0_8) l_0_0_8) (* l_0_0_9 l_0_0_9)) 0.0))
(assert
 (>= l_0_0_1 0.0))
(assert
 (>= l_0_0_3 0.0))
(assert
 (>= l_0_0_6 0.0))
(assert
 (>= l_0_0_7 0.0))
(assert
 (>= l_0_0_9 0.0))
(assert
 (>= l_0_0_12 0.0))
(assert
 (>= l_0_0_13 0.0))
(assert
 (>= l_0_0_15 0.0))
(assert
 (>= l_0_0_18 0.0))
(assert
 (let ((?x297 (+ (- (+ (* (- _a_0_) l_0_1_1) (* 1.0 l_0_1_2)) l_0_1_3) 1.0)))
 (= ?x297 0.0)))
(assert
 (= (* (- _a_1_) l_0_1_1) 0.0))
(assert
 (= (* (- _a_2_) l_0_1_1) 0.0))
(assert
 (= (* (- _a_3_) l_0_1_1) 0.0))
(assert
 (= (* (- _a_4_) l_0_1_1) 0.0))
(assert
 (= (* (- _a_5_) l_0_1_1) 0.0))
(assert
 (= (* (- _a_6_) l_0_1_1) 0.0))
(assert
 (= (* (- _a_7_) l_0_1_1) 0.0))
(assert
 (>= l_0_1_1 0.0))
(assert
 (>= l_0_1_2 0.0))
(assert
 (>= l_0_1_3 0.0))
(assert
 (let ((?x356 (- (- (+ (* (- _a_0_) l_0_2_1) _a_0_) (* 1.0 l_0_2_2)) l_0_2_4)))
 (= ?x356 0.0)))
(assert
 (= (- (+ (* (- _a_1_) l_0_2_1) _a_1_) l_0_2_3) 0.0))
(assert
 (= (+ (+ (- (- _a_1_) (* _a_3_ l_0_2_1)) _a_3_) l_0_2_3) 0.0))
(assert
 (= (+ (* (- _a_2_) l_0_2_1) _a_2_) 0.0))
(assert
 (= (+ (- _a_2_ (* _a_6_ l_0_2_1)) _a_6_) 0.0))
(assert
 (= (+ (* (- _a_4_) l_0_2_1) _a_4_) 0.0))
(assert
 (= (+ (* (- _a_5_) l_0_2_1) _a_5_) 0.0))
(assert
 (= (+ (* (- _a_7_) l_0_2_1) _a_7_) 0.0))
(assert
 (>= l_0_2_1 0.0))
(assert
 (>= l_0_2_2 0.0))
(assert
 (>= l_0_2_3 0.0))
(assert
 (>= l_0_2_4 0.0))
(assert
 (let ((?x432 (- (- (+ (* (- _a_0_) l_0_3_1) _a_0_) (* 1.0 l_0_3_2)) l_0_3_4)))
 (= ?x432 0.0)))
(assert
 (= (+ (- (+ (* (- _a_1_) l_0_3_1) _a_1_) _a_3_) l_0_3_3) 0.0))
(assert
 (= (+ (+ (* (- _a_2_) l_0_3_1) _a_2_) _a_6_) 0.0))
(assert
 (= (- (+ (* (- _a_3_) l_0_3_1) _a_3_) l_0_3_3) 0.0))
(assert
 (= (+ (* (- _a_4_) l_0_3_1) _a_4_) 0.0))
(assert
 (= (+ (* (- _a_5_) l_0_3_1) _a_5_) 0.0))
(assert
 (= (+ (* (- _a_6_) l_0_3_1) _a_6_) 0.0))
(assert
 (= (+ (* (- _a_7_) l_0_3_1) _a_7_) 0.0))
(assert
 (>= l_0_3_1 0.0))
(assert
 (>= l_0_3_2 0.0))
(assert
 (>= l_0_3_3 0.0))
(assert
 (>= l_0_3_4 0.0))
(check-sat)
(get-model)